NAME: concorde91
TYPE: TSP
DIMENSION: 25 
EDGE_WEIGHT_TYPE: EUC_2D
NODE_COORD_SECTION
1 1 83
2 20 80
3 51 32
4 93 96
5 13 65
6 17 46
7 61 61
8 82 29
9 85 72
10 79 93
11 1 68
12 70 18
13 82 35
14 57 12
15 48 10
16 16 30
17 9 84
18 16 100
19 2 44
20 71 20
21 76 97
22 86 66
23 44 30
24 42 12
25 59 60
